89
95
5,29
15
78
123
102
112
5,125
75
5
3
29
79
100
19
35,89
12
10,64
92
11,51,121
90
84
124
77
43
115
23,122
33
48
87
53
85
118
101
36
34
61
66
126
45,82
68,103
110
10
81
91
40
24
49
23,71
26
63
2
1
62
16
72
97
104,113
54
45,120
13
47
99
11,38,51
2,89
98
105
22
116
27
107
119
114
41
106
54,99
45
73,121
93
127
18
39
55
0
25
42,83
111
57
60
5,80
31,82
117
50
57,60
24,29
12,85
109
58
64
21
